NAME          
ROWS
 N  OBJ
 L  c1
 L  c2
 L  c3
COLUMNS
    MARKER    'MARKER'                 'INTORG'
    x[1]      c1        486
    x[1]      c2        15
    x[1]      c3        518
    x[1]      OBJ       -904
    x[2]      c1        638
    x[2]      c2        428
    x[2]      c3        199
    x[2]      OBJ       -821
    x[3]      c1        789
    x[3]      c2        2
    x[3]      c3        798
    x[3]      OBJ       -460
    x[4]      c1        715
    x[4]      c2        340
    x[4]      c3        228
    x[4]      OBJ       -464
    x[5]      c1        953
    x[5]      c2        264
    x[5]      c3        995
    x[5]      OBJ       -708
    x[6]      c1        530
    x[6]      c2        969
    x[6]      c3        756
    x[6]      OBJ       -923
    x[7]      c1        646
    x[7]      c2        337
    x[7]      c3        695
    x[7]      OBJ       -179
    x[8]      c1        937
    x[8]      c2        628
    x[8]      c3        536
    x[8]      OBJ       -176
    x[9]      c1        296
    x[9]      c2        245
    x[9]      c3        11
    x[9]      OBJ       -765
    x[10]     c1        915
    x[10]     c2        214
    x[10]     c3        85
    x[10]     OBJ       -349
    x[11]     c1        496
    x[11]     c2        335
    x[11]     c3        678
    x[11]     OBJ       -341
    x[12]     c1        171
    x[12]     c2        508
    x[12]     c3        286
    x[12]     OBJ       -570
    x[13]     c1        306
    x[13]     c2        21
    x[13]     c3        424
    x[13]     OBJ       -4
    x[14]     c1        514
    x[14]     c2        715
    x[14]     c3        826
    x[14]     OBJ       -944
    x[15]     c1        658
    x[15]     c2        250
    x[15]     c3        113
    x[15]     OBJ       -453
    x[16]     c1        32
    x[16]     c2        926
    x[16]     c3        112
    x[16]     OBJ       -350
    x[17]     c1        569
    x[17]     c2        9
    x[17]     c3        355
    x[17]     OBJ       -785
    x[18]     c1        327
    x[18]     c2        719
    x[18]     c3        527
    x[18]     OBJ       -50
    x[19]     c1        961
    x[19]     c2        104
    x[19]     c3        680
    x[19]     OBJ       -445
    x[20]     c1        523
    x[20]     c2        512
    x[20]     c3        363
    x[20]     OBJ       -549
    x[21]     c1        592
    x[21]     c2        108
    x[21]     c3        511
    x[21]     OBJ       -646
    x[22]     c1        343
    x[22]     c2        700
    x[22]     c3        693
    x[22]     OBJ       -580
    x[23]     c1        827
    x[23]     c2        324
    x[23]     c3        457
    x[23]     OBJ       -525
    x[24]     c1        277
    x[24]     c2        140
    x[24]     c3        661
    x[24]     OBJ       -235
    x[25]     c1        641
    x[25]     c2        93
    x[25]     c3        204
    x[25]     OBJ       -900
    x[26]     c1        519
    x[26]     c2        844
    x[26]     c3        487
    x[26]     OBJ       -313
    x[27]     c1        978
    x[27]     c2        532
    x[27]     c3        673
    x[27]     OBJ       -539
    x[28]     c1        782
    x[28]     c2        480
    x[28]     c3        379
    x[28]     OBJ       -504
    x[29]     c1        82
    x[29]     c2        40
    x[29]     c3        21
    x[29]     OBJ       -558
    x[30]     c1        6
    x[30]     c2        259
    x[30]     c3        133
    x[30]     OBJ       -41
RHS
    rhs       c1        8254
    rhs       c2        5530
    rhs       c3        6702
RANGES
BOUNDS
 LO bounds    x[1]      0
 PL bounds    x[1]
 LO bounds    x[2]      0
 PL bounds    x[2]
 LO bounds    x[3]      0
 PL bounds    x[3]
 LO bounds    x[4]      0
 PL bounds    x[4]
 LO bounds    x[5]      0
 PL bounds    x[5]
 LO bounds    x[6]      0
 PL bounds    x[6]
 LO bounds    x[7]      0
 PL bounds    x[7]
 LO bounds    x[8]      0
 PL bounds    x[8]
 LO bounds    x[9]      0
 PL bounds    x[9]
 LO bounds    x[10]     0
 PL bounds    x[10]
 LO bounds    x[11]     0
 PL bounds    x[11]
 LO bounds    x[12]     0
 PL bounds    x[12]
 LO bounds    x[13]     0
 PL bounds    x[13]
 LO bounds    x[14]     0
 PL bounds    x[14]
 LO bounds    x[15]     0
 PL bounds    x[15]
 LO bounds    x[16]     0
 PL bounds    x[16]
 LO bounds    x[17]     0
 PL bounds    x[17]
 LO bounds    x[18]     0
 PL bounds    x[18]
 LO bounds    x[19]     0
 PL bounds    x[19]
 LO bounds    x[20]     0
 PL bounds    x[20]
 LO bounds    x[21]     0
 PL bounds    x[21]
 LO bounds    x[22]     0
 PL bounds    x[22]
 LO bounds    x[23]     0
 PL bounds    x[23]
 LO bounds    x[24]     0
 PL bounds    x[24]
 LO bounds    x[25]     0
 PL bounds    x[25]
 LO bounds    x[26]     0
 PL bounds    x[26]
 LO bounds    x[27]     0
 PL bounds    x[27]
 LO bounds    x[28]     0
 PL bounds    x[28]
 LO bounds    x[29]     0
 PL bounds    x[29]
 LO bounds    x[30]     0
 PL bounds    x[30]
ENDATA
